893536
0 9 16806
9 10 127821
10 34 152240
34 15 80909
15 2 102850
2 13 28722
13 16 42514
16 14 54349
14 7 69737
7 8 5506
8 5 105842
5 35 62470
35 6 171139
6 12 87850
12 27 36816
27 28 43849
28 37 102540
37 22 26227
22 33 67429
33 11 69297
11 32 62554
32 25 57000
25 36 95349
36 29 90869
29 38 21339
38 24 83699
24 30 46249
30 19 17517
19 31 28150
31 4 10287
4 23 43138
23 21 36474
21 3 36786
3 18 83282
18 39 37058
39 17 45547
17 26 28094
26 1 22949
1 20 60538
20 0 43574